p cnf 252 771
1 2 3 4 5 6 7 8 9 10 11 12 13 14 0
15 16 17 18 19 20 21 22 23 24 25 26 27 28 0
32 33 34 35 36 37 38 39 40 41 42 29 30 31 0
43 44 45 46 47 48 49 50 51 52 53 54 55 56 0
64 65 66 67 68 69 70 57 58 59 60 61 62 63 0
71 72 73 74 75 76 77 78 79 80 81 82 83 84 0
96 97 98 85 86 87 88 89 90 91 92 93 94 95 0
99 100 101 102 103 104 105 106 107 108 109 110 111 112 0
113 114 115 116 117 118 119 120 121 122 123 124 125 126 0
128 129 130 131 132 133 134 135 136 137 138 139 140 127 0
141 142 143 144 145 146 147 148 149 150 151 152 153 154 0
160 161 162 163 164 165 166 167 168 155 156 157 158 159 0
169 170 171 172 173 174 175 176 177 178 179 180 181 182 0
192 193 194 195 196 183 184 185 186 187 188 189 190 191 0
197 198 199 200 201 202 203 204 205 206 207 208 209 210 0
-15 -1 0
-29 -1 0
-211 -1 0
-15 -29 0
-15 -211 0
-29 -211 0
-43 -57 0
-71 -43 0
-212 -43 0
-71 -57 0
-212 -57 0
-71 -212 0
-85 -99 0
-85 -113 0
-213 -85 0
-99 -113 0
-213 -99 0
-213 -113 0
-127 -141 0
-127 -155 0
-127 -169 0
-183 -127 0
-127 -197 0
-127 211 0
-127 212 0
-127 213 0
-141 -155 0
-141 -169 0
-183 -141 0
-197 -141 0
-141 211 0
-141 212 0
-141 213 0
-155 -169 0
-183 -155 0
-197 -155 0
211 -155 0
212 -155 0
213 -155 0
-183 -169 0
-197 -169 0
211 -169 0
212 -169 0
213 -169 0
-183 -197 0
-183 211 0
-183 212 0
-183 213 0
-197 211 0
-197 212 0
-197 213 0
211 212 0
211 213 0
212 213 0
-16 -2 0
-30 -2 0
-214 -2 0
-16 -30 0
-16 -214 0
-30 -214 0
-44 -58 0
-72 -44 0
-215 -44 0
-72 -58 0
-215 -58 0
-72 -215 0
-86 -100 0
-86 -114 0
-216 -86 0
-100 -114 0
-216 -100 0
-216 -114 0
-128 -142 0
-128 -156 0
-128 -170 0
-128 -184 0
-128 -198 0
-128 214 0
-128 215 0
-128 216 0
-142 -156 0
-142 -170 0
-184 -142 0
-142 -198 0
-142 214 0
-142 215 0
216 -142 0
-156 -170 0
-184 -156 0
-198 -156 0
-156 214 0
-156 215 0
216 -156 0
-184 -170 0
-198 -170 0
214 -170 0
-170 215 0
216 -170 0
-184 -198 0
-184 214 0
-184 215 0
-184 216 0
-198 214 0
-198 215 0
216 -198 0
214 215 0
216 214 0
216 215 0
-3 -17 0
-31 -3 0
-3 -217 0
-31 -17 0
-217 -17 0
-31 -217 0
-45 -59 0
-45 -73 0
-45 -218 0
-59 -73 0
-59 -218 0
-218 -73 0
-87 -101 0
-87 -115 0
-87 -219 0
-101 -115 0
-101 -219 0
-219 -115 0
-143 -129 0
-157 -129 0
-171 -129 0
-185 -129 0
-199 -129 0
217 -129 0
218 -129 0
219 -129 0
-143 -157 0
-143 -171 0
-143 -185 0
-143 -199 0
-143 217 0
-143 218 0
-143 219 0
-157 -171 0
-157 -185 0
-199 -157 0
217 -157 0
218 -157 0
-157 219 0
-171 -185 0
-199 -171 0
217 -171 0
218 -171 0
219 -171 0
-199 -185 0
217 -185 0
218 -185 0
219 -185 0
-199 217 0
-199 218 0
-199 219 0
217 218 0
217 219 0
218 219 0
-4 -18 0
-32 -4 0
-4 -220 0
-32 -18 0
-220 -18 0
-32 -220 0
-46 -60 0
-46 -74 0
-46 -221 0
-60 -74 0
-221 -60 0
-221 -74 0
-88 -102 0
-88 -116 0
-88 -222 0
-102 -116 0
-102 -222 0
-222 -116 0
-144 -130 0
-158 -130 0
-172 -130 0
-186 -130 0
-200 -130 0
220 -130 0
221 -130 0
222 -130 0
-144 -158 0
-144 -172 0
-144 -186 0
-144 -200 0
-144 220 0
-144 221 0
-144 222 0
-158 -172 0
-158 -186 0
-200 -158 0
-158 220 0
-158 221 0
-158 222 0
-172 -186 0
-200 -172 0
220 -172 0
-172 221 0
-172 222 0
-200 -186 0
220 -186 0
221 -186 0
222 -186 0
-200 220 0
-200 221 0
-200 222 0
220 221 0
220 222 0
221 222 0
-5 -19 0
-5 -33 0
-223 -5 0
-19 -33 0
-223 -19 0
-223 -33 0
-47 -61 0
-47 -75 0
-224 -47 0
-61 -75 0
-224 -61 0
-224 -75 0
-103 -89 0
-117 -89 0
-225 -89 0
-103 -117 0
-103 -225 0
-117 -225 0
-131 -145 0
-159 -131 0
-173 -131 0
-187 -131 0
-131 -201 0
-131 223 0
224 -131 0
225 -131 0
-159 -145 0
-173 -145 0
-187 -145 0
-201 -145 0
223 -145 0
224 -145 0
225 -145 0
-159 -173 0
-159 -187 0
-159 -201 0
-159 223 0
224 -159 0
-159 225 0
-173 -187 0
-173 -201 0
-173 223 0
224 -173 0
225 -173 0
-187 -201 0
-187 223 0
224 -187 0
225 -187 0
223 -201 0
224 -201 0
225 -201 0
224 223 0
225 223 0
224 225 0
-6 -20 0
-6 -34 0
-6 -226 0
-20 -34 0
-20 -226 0
-34 -226 0
-48 -62 0
-48 -76 0
-48 -227 0
-62 -76 0
-62 -227 0
-76 -227 0
-104 -90 0
-118 -90 0
-228 -90 0
-104 -118 0
-104 -228 0
-118 -228 0
-132 -146 0
-160 -132 0
-174 -132 0
-132 -188 0
-132 -202 0
226 -132 0
227 -132 0
-132 228 0
-160 -146 0
-174 -146 0
-188 -146 0
-202 -146 0
226 -146 0
227 -146 0
228 -146 0
-160 -174 0
-160 -188 0
-160 -202 0
-160 226 0
-160 227 0
-160 228 0
-174 -188 0
-174 -202 0
-174 226 0
-174 227 0
-174 228 0
-188 -202 0
226 -188 0
227 -188 0
-188 228 0
226 -202 0
227 -202 0
228 -202 0
226 227 0
226 228 0
227 228 0
-7 -21 0
-7 -35 0
-7 -229 0
-21 -35 0
-229 -21 0
-229 -35 0
-63 -49 0
-77 -49 0
-230 -49 0
-63 -77 0
-63 -230 0
-230 -77 0
-91 -105 0
-119 -91 0
-231 -91 0
-119 -105 0
-231 -105 0
-119 -231 0
-133 -147 0
-133 -161 0
-175 -133 0
-189 -133 0
-133 -203 0
-133 229 0
-133 230 0
-133 231 0
-147 -161 0
-175 -147 0
-189 -147 0
-203 -147 0
229 -147 0
-147 230 0
-147 231 0
-175 -161 0
-189 -161 0
-203 -161 0
229 -161 0
230 -161 0
231 -161 0
-175 -189 0
-175 -203 0
-175 229 0
-175 230 0
-175 231 0
-189 -203 0
-189 229 0
-189 230 0
-189 231 0
229 -203 0
-203 230 0
-203 231 0
229 230 0
229 231 0
230 231 0
-8 -22 0
-8 -36 0
-8 -232 0
-22 -36 0
-232 -22 0
-232 -36 0
-64 -50 0
-78 -50 0
-50 -233 0
-64 -78 0
-64 -233 0
-78 -233 0
-92 -106 0
-120 -92 0
-92 -234 0
-120 -106 0
-106 -234 0
-120 -234 0
-134 -148 0
-134 -162 0
-176 -134 0
-134 -190 0
-134 -204 0
232 -134 0
233 -134 0
-134 234 0
-148 -162 0
-176 -148 0
-190 -148 0
-148 -204 0
232 -148 0
233 -148 0
234 -148 0
-176 -162 0
-190 -162 0
-204 -162 0
232 -162 0
233 -162 0
234 -162 0
-176 -190 0
-176 -204 0
-176 232 0
-176 233 0
-176 234 0
-190 -204 0
232 -190 0
233 -190 0
-190 234 0
232 -204 0
233 -204 0
234 -204 0
232 233 0
232 234 0
233 234 0
-23 -9 0
-37 -9 0
-235 -9 0
-23 -37 0
-23 -235 0
-37 -235 0
-51 -65 0
-79 -51 0
-236 -51 0
-79 -65 0
-236 -65 0
-79 -236 0
-93 -107 0
-93 -121 0
-237 -93 0
-107 -121 0
-237 -107 0
-237 -121 0
-135 -149 0
-135 -163 0
-135 -177 0
-191 -135 0
-135 -205 0
-135 235 0
-135 236 0
-135 237 0
-149 -163 0
-149 -177 0
-191 -149 0
-205 -149 0
-149 235 0
-149 236 0
-149 237 0
-163 -177 0
-191 -163 0
-205 -163 0
235 -163 0
236 -163 0
237 -163 0
-191 -177 0
-205 -177 0
235 -177 0
236 -177 0
237 -177 0
-191 -205 0
-191 235 0
-191 236 0
-191 237 0
-205 235 0
-205 236 0
-205 237 0
235 236 0
235 237 0
236 237 0
-24 -10 0
-38 -10 0
-238 -10 0
-24 -38 0
-24 -238 0
-38 -238 0
-52 -66 0
-80 -52 0
-239 -52 0
-80 -66 0
-239 -66 0
-80 -239 0
-94 -108 0
-94 -122 0
-240 -94 0
-108 -122 0
-240 -108 0
-240 -122 0
-136 -150 0
-136 -164 0
-136 -178 0
-136 -192 0
-136 -206 0
-136 238 0
-136 239 0
-136 240 0
-150 -164 0
-150 -178 0
-192 -150 0
-150 -206 0
-150 238 0
-150 239 0
240 -150 0
-164 -178 0
-192 -164 0
-206 -164 0
-164 238 0
-164 239 0
240 -164 0
-192 -178 0
-206 -178 0
-178 238 0
-178 239 0
240 -178 0
-192 -206 0
-192 238 0
-192 239 0
-192 240 0
-206 238 0
-206 239 0
240 -206 0
238 239 0
240 238 0
240 239 0
-11 -25 0
-39 -11 0
-11 -241 0
-39 -25 0
-241 -25 0
-39 -241 0
-53 -67 0
-53 -81 0
-53 -242 0
-67 -81 0
-67 -242 0
-242 -81 0
-95 -109 0
-95 -123 0
-95 -243 0
-109 -123 0
-109 -243 0
-243 -123 0
-151 -137 0
-165 -137 0
-179 -137 0
-193 -137 0
-207 -137 0
241 -137 0
242 -137 0
243 -137 0
-151 -165 0
-151 -179 0
-151 -193 0
-151 -207 0
-151 241 0
-151 242 0
-151 243 0
-165 -179 0
-165 -193 0
-207 -165 0
241 -165 0
242 -165 0
-165 243 0
-179 -193 0
-207 -179 0
241 -179 0
242 -179 0
243 -179 0
-207 -193 0
241 -193 0
242 -193 0
243 -193 0
-207 241 0
-207 242 0
-207 243 0
241 242 0
241 243 0
242 243 0
-12 -26 0
-40 -12 0
-12 -244 0
-40 -26 0
-244 -26 0
-40 -244 0
-54 -68 0
-54 -82 0
-54 -245 0
-68 -82 0
-245 -68 0
-245 -82 0
-96 -110 0
-96 -124 0
-96 -246 0
-110 -124 0
-110 -246 0
-246 -124 0
-152 -138 0
-166 -138 0
-180 -138 0
-194 -138 0
-208 -138 0
244 -138 0
245 -138 0
-138 246 0
-152 -166 0
-152 -180 0
-152 -194 0
-152 -208 0
-152 244 0
-152 245 0
-152 246 0
-166 -180 0
-166 -194 0
-208 -166 0
-166 244 0
-166 245 0
-166 246 0
-180 -194 0
-208 -180 0
-180 244 0
-180 245 0
-180 246 0
-208 -194 0
244 -194 0
245 -194 0
-194 246 0
-208 244 0
-208 245 0
-208 246 0
244 245 0
244 246 0
245 246 0
-13 -27 0
-13 -41 0
-247 -13 0
-27 -41 0
-247 -27 0
-247 -41 0
-55 -69 0
-55 -83 0
-248 -55 0
-69 -83 0
-248 -69 0
-248 -83 0
-111 -97 0
-125 -97 0
-249 -97 0
-111 -125 0
-111 -249 0
-125 -249 0
-139 -153 0
-167 -139 0
-181 -139 0
-195 -139 0
-139 -209 0
-139 247 0
248 -139 0
249 -139 0
-167 -153 0
-181 -153 0
-195 -153 0
-209 -153 0
247 -153 0
248 -153 0
249 -153 0
-167 -181 0
-167 -195 0
-167 -209 0
-167 247 0
248 -167 0
-167 249 0
-181 -195 0
-181 -209 0
-181 247 0
248 -181 0
249 -181 0
-195 -209 0
-195 247 0
248 -195 0
249 -195 0
247 -209 0
248 -209 0
249 -209 0
248 247 0
249 247 0
248 249 0
-14 -28 0
-14 -42 0
-14 -250 0
-28 -42 0
-28 -250 0
-42 -250 0
-56 -70 0
-56 -84 0
-56 -251 0
-70 -84 0
-70 -251 0
-84 -251 0
-112 -98 0
-126 -98 0
-252 -98 0
-112 -126 0
-112 -252 0
-126 -252 0
-140 -154 0
-168 -140 0
-182 -140 0
-140 -196 0
-140 -210 0
250 -140 0
251 -140 0
-140 252 0
-168 -154 0
-182 -154 0
-196 -154 0
-210 -154 0
250 -154 0
251 -154 0
252 -154 0
-168 -182 0
-168 -196 0
-168 -210 0
-168 250 0
-168 251 0
-168 252 0
-182 -196 0
-182 -210 0
-182 250 0
-182 251 0
-182 252 0
-196 -210 0
250 -196 0
251 -196 0
-196 252 0
250 -210 0
251 -210 0
252 -210 0
250 251 0
250 252 0
251 252 0
